\ENCODING=ISO-8859-1
\Problem name: MDHFVRP

Minimize
 obj: X(1,3,1,4) + X(1,3,2,4) + 2 X(1,4,1,4) + 2 X(1,4,2,4) + X(2,1,1,4)
      + X(2,1,2,4) + X(2,3,1,4) + X(2,3,2,4) + X(3,1,1,4) + X(3,1,2,4)
      + 2 X(3,2,1,4) + 2 X(3,2,2,4) + 2 X(3,4,1,4) + 2 X(3,4,2,4) + X(4,1,1,4)
      + X(4,1,2,4) + 2 X(4,3,1,4) + 2 X(4,3,2,4)
Subject To
 c2_1:     X(2,1,1,4) + X(2,1,2,4) + X(3,1,1,4) + X(3,1,2,4) + X(4,1,1,4)
           + X(4,1,2,4)  = 1
 c2_2:     X(1,2,1,4) + X(1,2,2,4) + X(3,2,1,4) + X(3,2,2,4) + X(4,2,1,4)
           + X(4,2,2,4)  = 1
 c2_3:     X(1,3,1,4) + X(1,3,2,4) + X(2,3,1,4) + X(2,3,2,4) + X(4,3,1,4)
           + X(4,3,2,4)  = 1
 c3_1:     X(1,2,1,4) + X(1,2,2,4) + X(1,3,1,4) + X(1,3,2,4) + X(1,4,1,4)
           + X(1,4,2,4)  = 1
 c3_2:     X(2,1,1,4) + X(2,1,2,4) + X(2,3,1,4) + X(2,3,2,4) + X(2,4,1,4)
           + X(2,4,2,4)  = 1
 c3_3:     X(3,1,1,4) + X(3,1,2,4) + X(3,2,1,4) + X(3,2,2,4) + X(3,4,1,4)
           + X(3,4,2,4)  = 1
 c4_1_1_4: - X(1,2,1,4) - X(1,3,1,4) - X(1,4,1,4) + X(2,1,1,4) + X(3,1,1,4)
           + X(4,1,1,4)  = 0
 c4_1_2_4: X(1,2,1,4) - X(2,1,1,4) - X(2,3,1,4) - X(2,4,1,4) + X(3,2,1,4)
           + X(4,2,1,4)  = 0
 c4_1_3_4: X(1,3,1,4) + X(2,3,1,4) - X(3,1,1,4) - X(3,2,1,4) - X(3,4,1,4)
           + X(4,3,1,4)  = 0
 c4_1_4_4: X(1,4,1,4) + X(2,4,1,4) + X(3,4,1,4) - X(4,1,1,4) - X(4,2,1,4)
           - X(4,3,1,4)  = 0
 c4_2_1_4: - X(1,2,2,4) - X(1,3,2,4) - X(1,4,2,4) + X(2,1,2,4) + X(3,1,2,4)
           + X(4,1,2,4)  = 0
 c4_2_2_4: X(1,2,2,4) - X(2,1,2,4) - X(2,3,2,4) - X(2,4,2,4) + X(3,2,2,4)
           + X(4,2,2,4)  = 0
 c4_2_3_4: X(1,3,2,4) + X(2,3,2,4) - X(3,1,2,4) - X(3,2,2,4) - X(3,4,2,4)
           + X(4,3,2,4)  = 0
 c4_2_4_4: X(1,4,2,4) + X(2,4,2,4) + X(3,4,2,4) - X(4,1,2,4) - X(4,2,2,4)
           - X(4,3,2,4)  = 0
 c5:       f(4,1) + f(4,2) + f(4,3)  = 14
 c6_1:     - f(1,2) - f(1,3) - f(1,4) + f(2,1) + f(3,1) + f(4,1)  = 4
 c6_2:     f(1,2) - f(2,1) - f(2,3) - f(2,4) + f(3,2) + f(4,2)  = 2
 c6_3:     f(1,3) + f(2,3) - f(3,1) - f(3,2) - f(3,4) + f(4,3)  = 8
 c7_1_2:   8 X(1,2,1,4) + 20 X(1,2,2,4) - f(1,2) >= 0
 c7_1_3:   8 X(1,3,1,4) + 20 X(1,3,2,4) - f(1,3) >= 0
 c7_2_1:   8 X(2,1,1,4) + 20 X(2,1,2,4) - f(2,1) >= 0
 c7_2_3:   8 X(2,3,1,4) + 20 X(2,3,2,4) - f(2,3) >= 0
 c7_3_1:   8 X(3,1,1,4) + 20 X(3,1,2,4) - f(3,1) >= 0
 c7_3_2:   8 X(3,2,1,4) + 20 X(3,2,2,4) - f(3,2) >= 0
 c7_4_1:   8 X(4,1,1,4) + 20 X(4,1,2,4) - f(4,1) >= 0
 c7_4_2:   8 X(4,2,1,4) + 20 X(4,2,2,4) - f(4,2) >= 0
 c7_4_3:   8 X(4,3,1,4) + 20 X(4,3,2,4) - f(4,3) >= 0
 c11_1_2:  f(1,2) >= 0
 c11_1_3:  f(1,3) >= 0
 c11_1_4:  f(1,4) >= 0
 c11_2_1:  f(2,1) >= 0
 c11_2_3:  f(2,3) >= 0
 c11_2_4:  f(2,4) >= 0
 c11_3_1:  f(3,1) >= 0
 c11_3_2:  f(3,2) >= 0
 c11_3_4:  f(3,4) >= 0
 c11_4_1:  f(4,1) >= 0
 c11_4_2:  f(4,2) >= 0
 c11_4_3:  f(4,3) >= 0
 c12_1_2:  4 X(1,2,1,4) + 16 X(1,2,2,4) - f(1,2) >= 0
 c12_1_3:  4 X(1,3,1,4) + 16 X(1,3,2,4) - f(1,3) >= 0
 c12_2_1:  6 X(2,1,1,4) + 18 X(2,1,2,4) - f(2,1) >= 0
 c12_2_3:  6 X(2,3,1,4) + 18 X(2,3,2,4) - f(2,3) >= 0
 c12_3_1:  12 X(3,1,2,4) - f(3,1) >= 0
 c12_3_2:  12 X(3,2,2,4) - f(3,2) >= 0
 c12_4_1:  8 X(4,1,1,4) + 20 X(4,1,2,4) - f(4,1) >= 0
 c12_4_2:  8 X(4,2,1,4) + 20 X(4,2,2,4) - f(4,2) >= 0
 c12_4_3:  8 X(4,3,1,4) + 20 X(4,3,2,4) - f(4,3) >= 0
 c13_1_2:  2 X(1,2,1,4) + 2 X(1,2,2,4) - f(1,2) <= 0
 c13_1_3:  8 X(1,3,1,4) + 8 X(1,3,2,4) - f(1,3) <= 0
 c13_2_1:  4 X(2,1,1,4) + 4 X(2,1,2,4) - f(2,1) <= 0
 c13_2_3:  8 X(2,3,1,4) + 8 X(2,3,2,4) - f(2,3) <= 0
 c13_3_1:  4 X(3,1,1,4) + 4 X(3,1,2,4) - f(3,1) <= 0
 c13_3_2:  2 X(3,2,1,4) + 2 X(3,2,2,4) - f(3,2) <= 0
Bounds
 0 <= X(1,2,1,4) <= 1
 0 <= X(1,2,2,4) <= 1
 0 <= X(1,3,1,4) <= 1
 0 <= X(1,3,2,4) <= 1
 0 <= X(1,4,1,4) <= 1
 0 <= X(1,4,2,4) <= 1
 0 <= X(2,1,1,4) <= 1
 0 <= X(2,1,2,4) <= 1
 0 <= X(2,3,1,4) <= 1
 0 <= X(2,3,2,4) <= 1
 0 <= X(2,4,1,4) <= 1
 0 <= X(2,4,2,4) <= 1
 0 <= X(3,1,1,4) <= 1
 0 <= X(3,1,2,4) <= 1
 0 <= X(3,2,1,4) <= 1
 0 <= X(3,2,2,4) <= 1
 0 <= X(3,4,1,4) <= 1
 0 <= X(3,4,2,4) <= 1
 0 <= X(4,1,1,4) <= 1
 0 <= X(4,1,2,4) <= 1
 0 <= X(4,2,1,4) <= 1
 0 <= X(4,2,2,4) <= 1
 0 <= X(4,3,1,4) <= 1
 0 <= X(4,3,2,4) <= 1
 0 <= f(1,2) <= 20
 0 <= f(1,3) <= 20
 0 <= f(1,4) <= 20
 0 <= f(2,1) <= 20
 0 <= f(2,3) <= 20
 0 <= f(2,4) <= 20
 0 <= f(3,1) <= 20
 0 <= f(3,2) <= 20
 0 <= f(3,4) <= 20
 0 <= f(4,1) <= 20
 0 <= f(4,2) <= 20
 0 <= f(4,3) <= 20
Binaries
 X(1,2,1,4)  X(1,2,2,4)  X(1,3,1,4)  X(1,3,2,4)  X(1,4,1,4)  X(1,4,2,4) 
 X(2,1,1,4)  X(2,1,2,4)  X(2,3,1,4)  X(2,3,2,4)  X(2,4,1,4)  X(2,4,2,4) 
 X(3,1,1,4)  X(3,1,2,4)  X(3,2,1,4)  X(3,2,2,4)  X(3,4,1,4)  X(3,4,2,4) 
 X(4,1,1,4)  X(4,1,2,4)  X(4,2,1,4)  X(4,2,2,4)  X(4,3,1,4)  X(4,3,2,4) 
End
